Solver command line: ['C:\\Users\\Gabriela Escobar\\anaconda3\\envs\\pyomo_env\\Library\\bin\\glpsol.exe', '--write', 'C:\\Users\\GABRIE~1\\AppData\\Local\\Temp\\tmpb_gcz7a5.glpk.raw', '--wglp', 'C:\\Users\\GABRIE~1\\AppData\\Local\\Temp\\tmp72kf2vmc.glpk.glp', '--cpxlp', 'C:\\Users\\GABRIE~1\\AppData\\Local\\Temp\\tmp8wwyw_hr.pyomo.lp']

GLPSOL--GLPK LP/MIP Solver 5.0
Parameter(s) specified in the command line:
 --write C:\Users\GABRIE~1\AppData\Local\Temp\tmpb_gcz7a5.glpk.raw --wglp
 C:\Users\GABRIE~1\AppData\Local\Temp\tmp72kf2vmc.glpk.glp --cpxlp C:\Users\GABRIE~1\AppData\Local\Temp\tmp8wwyw_hr.pyomo.lp
Reading problem data from 'C:\Users\GABRIE~1\AppData\Local\Temp\tmp8wwyw_hr.pyomo.lp'...
71 rows, 71 columns, 4901 non-zeros
5262 lines were read
Writing problem data to 'C:\Users\GABRIE~1\AppData\Local\Temp\tmp72kf2vmc.glpk.glp'...
5187 lines were written
GLPK Simplex Optimizer 5.0
71 rows, 71 columns, 4901 non-zeros
Preprocessing...
70 rows, 70 columns, 4900 non-zeros
Scaling...
 A: min|aij| =  1.110e-04  max|aij| =  4.999e+00  ratio =  4.504e+04
GM: min|aij| =  1.109e-02  max|aij| =  9.014e+01  ratio =  8.126e+03
EQ: min|aij| =  1.231e-04  max|aij| =  1.000e+00  ratio =  8.126e+03
Constructing initial basis...
Size of triangular part is 70
*     0: obj =  -0.000000000e+00 inf =   0.000e+00 (70)
*    44: obj =   2.816302450e+02 inf =   0.000e+00 (0)
OPTIMAL LP SOLUTION FOUND
Time used:   0.0 secs
Memory used: 0.9 Mb (900652 bytes)
Writing basic solution to 'C:\Users\GABRIE~1\AppData\Local\Temp\tmpb_gcz7a5.glpk.raw'...
151 lines were written

